19 26
27 45
19 16
8 43
23 16
5 44
18 22
15 31
7 33
27 21
6 47
13 11
5 14
24 4
21 33
6 6
30 6
19 31
17 29
13 47
8 41
15 13
20 49
10 24
22 35
20 2
18 42
6 32
29 50
25 2
12 23
6 14
28 42
16 10
27 48
17 26
24 23
29 21
6 35
10 33
15 2
23 15
16 33
15 44
17 36
19 46
21 20
25 39
8 21
23 39
